Minimize
x0 + x1 + x2 + x3 + x4 + x5 + x6 + x7 + x8 + x9 + x10 + x11 + x12 + x13 + x14 + x15 + x16 + x17 + x18 + x19 + x20 + x21 + x22 + x23 + x24 + x25 + x26 + x27 + x28 + x29 + x30 + x31 + x32 + x33 + x34 + x35 + x36 + x37 + x38 + x39 + x40 + x41 + x42 + x43 + x44 + x45 + x46 + x47 + x48 + x49 + x50 + x51 + x52 + x53 + x54 + x55 + x56 + x57 + x58 + x59 + x60 + x61 + x62 + x63

Subject To
x0 + x10 + x5 + x15 + x16 + x17 + x18 + x19 - 4 d0 >= 0
d0 - x0 >= 0
d0 - x10 >= 0
d0 - x5 >= 0
d0 - x15 >= 0
d0 - x16 >= 0
d0 - x17 >= 0
d0 - x18 >= 0
d0 - x19 >= 0
x11 + x1 + x14 + x4 + x20 + x21 + x22 + x23 - 4 d1 >= 0
d1 - x11 >= 0
d1 - x1 >= 0
d1 - x14 >= 0
d1 - x4 >= 0
d1 - x20 >= 0
d1 - x21 >= 0
d1 - x22 >= 0
d1 - x23 >= 0
x6 + x12 + x3 + x9 + x24 + x25 + x26 + x27 - 4 d2 >= 0
d2 - x6 >= 0
d2 - x12 >= 0
d2 - x3 >= 0
d2 - x9 >= 0
d2 - x24 >= 0
d2 - x25 >= 0
d2 - x26 >= 0
d2 - x27 >= 0
x13 + x7 + x8 + x2 + x28 + x29 + x30 + x31 - 4 d3 >= 0
d3 - x13 >= 0
d3 - x7 >= 0
d3 - x8 >= 0
d3 - x2 >= 0
d3 - x28 >= 0
d3 - x29 >= 0
d3 - x30 >= 0
d3 - x31 >= 0
x0 + x1 + x2 + x3 + x4 + x5 + x6 + x7 + x8 + x9 + x10 + x11 + x12 + x13 + x14 + x15 >= 1

x16 + x26 + x21 + x31 + x32 + x33 + x34 + x35 - 4 d4 >= 0
d4 - x16 >= 0
d4 - x26 >= 0
d4 - x21 >= 0
d4 - x31 >= 0
d4 - x32 >= 0
d4 - x33 >= 0
d4 - x34 >= 0
d4 - x35 >= 0
x30 + x20 + x27 + x17 + x36 + x37 + x38 + x39 - 4 d5 >= 0
d5 - x30 >= 0
d5 - x20 >= 0
d5 - x27 >= 0
d5 - x17 >= 0
d5 - x36 >= 0
d5 - x37 >= 0
d5 - x38 >= 0
d5 - x39 >= 0
x25 + x19 + x28 + x22 + x40 + x41 + x42 + x43 - 4 d6 >= 0
d6 - x25 >= 0
d6 - x19 >= 0
d6 - x28 >= 0
d6 - x22 >= 0
d6 - x40 >= 0
d6 - x41 >= 0
d6 - x42 >= 0
d6 - x43 >= 0
x23 + x29 + x18 + x24 + x44 + x45 + x46 + x47 - 4 d7 >= 0
d7 - x23 >= 0
d7 - x29 >= 0
d7 - x18 >= 0
d7 - x24 >= 0
d7 - x44 >= 0
d7 - x45 >= 0
d7 - x46 >= 0
d7 - x47 >= 0
x16 + x17 + x18 + x19 + x20 + x21 + x22 + x23 + x24 + x25 + x26 + x27 + x28 + x29 + x30 + x31 >= 1

x32 + x42 + x37 + x47 + x48 + x49 + x50 + x51 - 4 d8 >= 0
d8 - x32 >= 0
d8 - x42 >= 0
d8 - x37 >= 0
d8 - x47 >= 0
d8 - x48 >= 0
d8 - x49 >= 0
d8 - x50 >= 0
d8 - x51 >= 0
x46 + x36 + x43 + x33 + x52 + x53 + x54 + x55 - 4 d9 >= 0
d9 - x46 >= 0
d9 - x36 >= 0
d9 - x43 >= 0
d9 - x33 >= 0
d9 - x52 >= 0
d9 - x53 >= 0
d9 - x54 >= 0
d9 - x55 >= 0
x41 + x35 + x44 + x38 + x56 + x57 + x58 + x59 - 4 d10 >= 0
d10 - x41 >= 0
d10 - x35 >= 0
d10 - x44 >= 0
d10 - x38 >= 0
d10 - x56 >= 0
d10 - x57 >= 0
d10 - x58 >= 0
d10 - x59 >= 0
x39 + x45 + x34 + x40 + x60 + x61 + x62 + x63 - 4 d11 >= 0
d11 - x39 >= 0
d11 - x45 >= 0
d11 - x34 >= 0
d11 - x40 >= 0
d11 - x60 >= 0
d11 - x61 >= 0
d11 - x62 >= 0
d11 - x63 >= 0
x32 + x33 + x34 + x35 + x36 + x37 + x38 + x39 + x40 + x41 + x42 + x43 + x44 + x45 + x46 + x47 >= 1

x48 + x58 + x53 + x63 + x64 + x65 + x66 + x67 - 4 d12 >= 0
d12 - x48 >= 0
d12 - x58 >= 0
d12 - x53 >= 0
d12 - x63 >= 0
d12 - x64 >= 0
d12 - x65 >= 0
d12 - x66 >= 0
d12 - x67 >= 0
x62 + x52 + x59 + x49 + x68 + x69 + x70 + x71 - 4 d13 >= 0
d13 - x62 >= 0
d13 - x52 >= 0
d13 - x59 >= 0
d13 - x49 >= 0
d13 - x68 >= 0
d13 - x69 >= 0
d13 - x70 >= 0
d13 - x71 >= 0
x57 + x51 + x60 + x54 + x72 + x73 + x74 + x75 - 4 d14 >= 0
d14 - x57 >= 0
d14 - x51 >= 0
d14 - x60 >= 0
d14 - x54 >= 0
d14 - x72 >= 0
d14 - x73 >= 0
d14 - x74 >= 0
d14 - x75 >= 0
x55 + x61 + x50 + x56 + x76 + x77 + x78 + x79 - 4 d15 >= 0
d15 - x55 >= 0
d15 - x61 >= 0
d15 - x50 >= 0
d15 - x56 >= 0
d15 - x76 >= 0
d15 - x77 >= 0
d15 - x78 >= 0
d15 - x79 >= 0
x48 + x49 + x50 + x51 + x52 + x53 + x54 + x55 + x56 + x57 + x58 + x59 + x60 + x61 + x62 + x63 >= 1

Binary
x0
x1
x2
x3
x4
x5
x6
x7
x8
x9
x10
x11
x12
x13
x14
x15
d0
d1
d2
d3
d4
d5
d6
d7
d8
d9
d10
d11
d12
d13
d14
d15
End
